c --- [ banner ] -------------------------------------------------------------
c 
c CaDiCaL Radically Simplified CDCL SAT Solver
c Copyright (c) 2016-2021 A. Biere, M. Fleury, N. Froleyks
c 
c Version 1.5.2 a5f15211db36c3956764e18194dd5bd63bf3b5e6
c g++ (GCC) 9.3.0 -Wall -Wextra -O3 -DNDEBUG
c Fri Oct 21 01:27:37 EDT 2022 Linux gra-login3 3.10.0-1160.66.1.el7.x86_64 x86_64
c 
c --- [ limit ] --------------------------------------------------------------
c 
c setting conflict limit to 200000 conflicts (due to '200000')
c 
c --- [ parsing input ] ------------------------------------------------------
c 
c reading DIMACS file from '33.cubes4387.adj'
c opening file to read '33.cubes4387.adj'
c found 'p cnf 6160 1595478' header
c parsed 1595478 clauses in 19.71 seconds process time
c closing file '33.cubes4387.adj'
c after reading 1457566794 bytes 1390.0 MB
c 
c --- [ options ] ------------------------------------------------------------
c 
c all options are set to their default value
c 
c --- [ solving ] ------------------------------------------------------------
c 
c time measured in process time since initialization
c 
c  seconds    reductions  redundant   irredundant
c          MB     restarts       trail       variables
c            level   conflicts       glue         remaining
c 
c * 19.72 1380  0 0   0    0    0  0% 0 1595422 2406 39%
c { 20.42 1409  0 0   0    0    0  0% 0 1595422 2406 39%
c i 22.27 1467 983 0   0   24   22 37% 3 1595422 2398 39%
c i 24.54 1502 489 0   7   58   54 32% 12 1595422 2392 39%
c i 25.26 1508 348 0  16   85   80 30% 19 1595422 2383 39%
c i 26.69 1515 259 0  27  133  124 29% 32 1595422 2378 39%
c i 27.31 1516 224 0  32  164  147 28% 29 1595422 2377 39%
c i 27.54 1516 213 0  35  181  163 28% 32 1595422 2376 39%
c i 27.69 1517 204 0  38  194  174 28% 33 1595422 2375 39%
c i 28.32 1518 176 0  43  246  211 27% 31 1595422 2374 39%
c i 28.50 1518 172 0  43  256  220 27% 32 1595422 2373 39%
c i 28.64 1518 168 0  44  266  229 27% 32 1595422 2372 39%
c i 28.77 1518 167 0  45  271  233 27% 32 1595422 2371 38%
c i 28.89 1518 165 0  47  277  238 27% 33 1595422 2370 38%
c i 28.90 1518 165 0  47  278  238 27% 33 1595422 2369 38%
c i 29.07 1518 161 0  52  298  255 28% 36 1595422 2368 38%
c - 32.83 1471 160 1  53  303  257 28% 37 334769 2368 38%
c i 33.13 1472 153 1  57  324  273 27% 36 334769 2367 38%
c i 33.27 1472 150 1  60  335  281 27% 36 334769 2364 38%
c i 33.40 1472 146 1  63  346  286 27% 36 334769 2363 38%
c 
c  seconds     reductions  redundant   irredundant
c          MB      restarts       trail       variables
c             level   conflicts       glue         remaining
c 
c i 33.44 1472 145 1  63  349  288 27% 36 334769 2362 38%
c i 34.10 1472 97 1  69  583  363 24% 28 334769 2361 38%
c i 34.14 1472 96 1  69  597  376 24% 28 334769 2360 38%
c i 34.16 1472 95 1  69  604  381 24% 28 334769 2349 38%
c i 34.28 1472 96 1  71  622  395 25% 29 334769 2348 38%
c i 34.34 1472 96 1  75  640  409 25% 30 334769 2346 38%
c i 34.80 1472 94 1  86  681  446 25% 30 334769 2345 38%
c i 35.12 1472 95 1  89  702  466 25% 30 334769 2344 38%
c i 35.30 1375 94 1  92  719  479 25% 30 334769 2343 38%
c i 36.10 1375 97 1 106  782  533 25% 33 334769 2342 38%
c i 36.68 1374 100 1 118  830  576 25% 35 334769 2341 38%
c i 36.77 1374 100 1 120  845  586 25% 36 334769 2340 38%
c i 36.93 1374 100 1 126  870  607 26% 37 334769 2339 38%
c i 37.22 1374 99 1 132  895  627 26% 37 334769 2338 38%
c } 38.01 1375 97 1 140 1001  719 26% 36 334769 2338 38%
c [ 38.01 1375  0 1 140 1001  719  0% 0 334769 2338 38%
c O 38.01 1375  1 1 140 1002  720 12% 1 334769 2338 38%
c i 38.02 1375  1 1 140 1004  721 12% 1 334769 2288 37%
c i 38.29 1375 20 1 140 1055  761 34% 17 334769 2287 37%
c i 38.29 1375 20 1 140 1064  766 34% 17 334769 2286 37%
c 
c  seconds    reductions  redundant   irredundant
c          MB     restarts       trail       variables
c            level   conflicts       glue         remaining
c 
c i 38.36 1375 20 1 140 1076  773 34% 17 334769 2285 37%
c i 38.40 1375 21 1 140 1085  781 34% 17 334769 2284 37%
c i 38.42 1375 21 1 140 1091  785 34% 17 334769 2283 37%
c i 38.44 1375 21 1 140 1102  794 34% 17 334769 2282 37%
c i 38.59 1375 23 1 140 1170  847 33% 18 334769 2281 37%
c i 38.60 1375 23 1 140 1184  852 33% 18 334769 2280 37%
c - 39.31 1489 23 2 140 1218  752 33% 19 259596 2280 37%
c i 39.46 1489 23 2 140 1234  765 33% 19 259596 2279 37%
c i 39.59 1489 23 2 140 1256  781 33% 19 259596 2278 37%
c i 39.84 1489 23 2 140 1511  968 32% 20 259596 2277 37%
c i 39.96 1489 24 2 140 1647 1056 32% 21 259596 2276 37%
c i 40.32 1489 24 2 141 2224 1373 32% 21 259596 2275 37%
c i 40.33 1489 24 2 141 2228 1372 32% 21 259596 2274 37%
c i 40.34 1489 24 2 141 2254 1389 32% 21 259596 2273 37%
c i 40.43 1489 24 2 141 2391 1463 32% 21 259596 2272 37%
c - 40.84 1487 24 3 141 2490 1145 32% 21 259572 2272 37%
c i 41.27 1456 23 3 141 2577 1186 56% 21 259572 2271 37%
c ] 41.57 1456 23 3 141 3001 1413 55% 20 259572 2271 37%
c { 41.57 1456 97 3 141 3001 1413 70% 36 259572 2271 37%
c F 41.67 1456 97 3 142 3003 1415 70% 36 259572 2271 37%
c 
c  seconds    reductions  redundant   irredundant
c          MB     restarts       trail       variables
c            level   conflicts       glue         remaining
c 
c i 42.28 1456 84 3 143 3263 1598 65% 33 259572 2270 37%
c i 43.04 1456 84 3 160 3357 1685 63% 34 259572 2269 37%
c i 43.10 1456 85 3 162 3363 1690 63% 34 259572 2268 37%
c i 43.12 1456 85 3 163 3368 1693 63% 34 259572 2266 37%
c i 43.58 1456 83 3 183 3460 1775 62% 34 259572 2265 37%
c i 43.68 1456 80 3 183 3558 1856 61% 34 259572 2264 37%
c i 43.90 1456 78 3 188 3647 1935 60% 34 259572 2263 37%
c i 43.96 1456 77 3 188 3730 2003 60% 33 259572 2262 37%
c i 44.17 1456 74 3 194 3896 2148 58% 34 259572 2261 37%
c i 44.29 1456 75 3 199 3911 2162 58% 34 259572 2260 37%
c i 44.66 1456 76 3 206 3949 2196 58% 35 259572 2259 37%
c i 45.18 1456 76 3 215 3982 2223 57% 35 259572 2258 37%
c i 46.11 1456 74 3 228 4189 2392 57% 35 259572 2257 37%
c - 46.40 1347 74 4 229 4189 1789 57% 35 259527 2257 37%
c i 47.29 1347 73 4 241 4363 1933 56% 35 259527 2256 37%
c i 48.26 1347 69 4 251 4949 2422 54% 35 259527 2255 37%
c p 55.42 1347 69 4 259 5000 5701 54% 35 259505 2198 36%
c d 55.83 1347 69 4 259 5000 5689 54% 35 259357 2197 36%
c # 57.19 1347 59 4 272 6005 6380 53% 33 259357 2197 36%
c - 57.68 1349 57 5 272 6312 2507 53% 32 259357 2197 36%
c 
c  seconds    reductions  redundant   irredundant
c          MB     restarts       trail       variables
c            level   conflicts       glue         remaining
c 
c } 58.03 1349 52 5 272 7003 2982 52% 30 259357 2197 36%
c [ 58.03 1349 23 5 272 7003 2982 55% 20 259357 2197 36%
c ] 58.25 1349 25 5 273 7213 3123 53% 22 259357 2197 36%
c 1 58.25 1349 25 5 273 7213 3123 53% 22 259357 2197 36%
c 
c --- [ writing output ] -----------------------------------------------------
c 
c writing simplified CNF to DIMACS file 'simp/33.cubes4387.adj.simp1'
c * 58.25 1349 25 5 273 7213 3123 53% 22 259357 2197 36%
c opening file to write 'simp/33.cubes4387.adj.simp1'
c writing 'p cnf 6160 259357' header
c closing file 'simp/33.cubes4387.adj.simp1'
c after writing 121250122 bytes 115.6 MB
c wrote 259357 clauses in 0.88 seconds process time
c 
c --- [ writing extension ] --------------------------------------------------
c 
c writing extension stack to 'simp/33.cubes4387.adj.ext1'
c opening file to write 'simp/33.cubes4387.adj.ext1'
c closing file 'simp/33.cubes4387.adj.ext1'
c after writing 12341 bytes 0.0 MB
c wrote 828 witnesses in 0.00 seconds process time
c 
c --- [ result ] -------------------------------------------------------------
c 
s SATISFIABLE
c 
c --- [ run-time profiling ] -------------------------------------------------
c 
c process time taken by individual solving procedures
c (percentage relative to process time for solving)
c 
c        31.21   81.00% search
c        26.74   69.39% unstable
c        19.71   51.17% parse
c         7.32   19.00% simplify
c         6.42   16.67% probe
c         3.77    9.78% stable
c         0.70    1.83% lucky
c         0.04    0.12% ternary
c   =================================
c        38.53   65.16% solve
c 
c last line shows process time for solving
c (percentage relative to total process time)
c 
c --- [ statistics ] ---------------------------------------------------------
c 
c chronological:              1539        21.34 %  of conflicts
c conflicts:                  7213       187.20    per second
c decisions:                 36417       945.16    per second
c fixed:                       810        13.15 %  of all variables
c learned:                    7046        97.68 %  per conflict
c learned_lits:            1376908       100.00 %  learned literals
c minimized:                     0         0.00 %  learned literals
c shrunken:                 837834        60.85 %  learned literals
c minishrunken:              99526         7.23 %  learned literals
c propagations:            1196742         0.03 M  per second
c reduced:                    2111        29.27 %  per conflict
c rephased:                      3      2404.33    interval
c restarts:                    273        26.42    interval
c stabilizing:                   2        30.64 %  of conflicts
c substituted:                   9         0.15 %  of all variables
c subsumed:                   1876         0.06 %  of all clauses
c ternary:                     959         0.50 %  of resolved
c weakened:                     18         2.00    average size
c 
c seconds are measured in process time for solving
c 
c --- [ resources ] ----------------------------------------------------------
c 
c total process time since initialization:        59.13    seconds
c total real time since initialization:           59.21    seconds
c maximum resident set size of process:         1601.32    MB
c 
c --- [ shutting down ] ------------------------------------------------------
c 
c exit 10
WARNING! DIMACS header mismatch: wrong number of variables.
============================[ Problem Statistics ]=============================
|                                                                             |
|  Number of variables:          6120                                         |
|  Number of clauses:          259357                                         |
|  Parse time:                   1.61 s                                       |
|  Simplification time:          0.03 s                                       |
|                                                                             |
============================[ Search Statistics ]====================================================
| Conflicts |          ORIGINAL         |          LEARNT          | Num Sols |      SUBGRAPHS      |
|           |    Vars  Clauses Literals |    Limit  Clauses Lit/Cl |          | Canonical Noncanon. |
=====================================================================================================
|       131 |    6027   259388 26106681 |     2000      131     76 |        0 |        21        31 |
|       284 |    6027   259391 26106747 |     2000      284    104 |        0 |        21        34 |
|       527 |    6027   259409 26107135 |     2000      527    110 |        0 |        22        52 |
|       886 |    6027   259431 26107432 |     2000      886    104 |        0 |        52        74 |
|      1414 |    6027   259453 26107706 |     2000     1414    103 |        0 |        69        96 |
|      2288 |    6027   259568 26109847 |     3600     1288     66 |        0 |        99       211 |
|      3505 |    6027   259646 26112402 |     3600     2505     85 |        0 |       149       289 |
|      5270 |    6027   259703 26113818 |     5006     2476     68 |        0 |       176       346 |
|      7863 |    6027   259734 26114815 |     6304     2567     55 |        0 |       208       377 |
|     12379 |    6027   260406 26128281 |     7550     3929     52 |        0 |       484      1049 |
|     18465 |    6027   260726 26135266 |     8781     6246     60 |        0 |       638      1369 |
|     27814 |    6027   261426 26149051 |    11199     6213     40 |        0 |       784      2069 |
|     42370 |    6027   263008 26177713 |    13607     8977     48 |        0 |      1014      3651 |
|     63783 |    6027   264960 26215054 |    17216     8199     20 |        0 |      1641      5603 |
|     94095 |    6027   266080 26238642 |    20813    10908     30 |        0 |      2205      6723 |
|    140257 |    6027   268453 26281472 |    24412    24069     61 |        3 |      2870      9093 |
|    208159 |    6027   270671 26320883 |    30407    24966     60 |        3 |      3593     11311 |
|    308437 |    6027   272423 26355717 |    37611    25048     51 |        3 |      4100     13063 |
|    459974 |    6027   276171 26423282 |    46011    32385     54 |        3 |      5830     16811 |
|    682315 |    6027   276829 26442012 |    55614    53929     71 |        3 |      6280     17469 |
|   1015675 |    6027   277664 26465086 |    68820    48495     57 |        3 |      6462     18304 |
|   1538488 |    6027   301689 26942649 |    84414    77302     69 |        5 |     16679     42327 |
|   2326800 |    6027   341819 27727877 |   104815    66615     45 |        5 |     26746     82457 |
|   3493715 |    6027   386460 28542330 |   128815    71530     34 |       12 |     40181    127091 |
|   5231465 |    6027   440799 29400333 |   157618    98083     40 |       12 |     56270    181430 |
|   7808725 |    6027   492943 30325985 |   192422   146547     54 |       17 |     74145    233569 |
|  11727729 |    6027   624272 32903008 |   235619   224348     64 |       26 |    110056    364889 |
|  17912474 |    6027  1127505 43512741 |   292025   223899     50 |       27 |    220211    868121 |
=====================================================================================================
Number of solutions   : 28
Canonical subgraphs   : 311409         (20 /sec)
          order  3    : 1              (166667 /sec)
          order  4    : 1              (500000 /sec)
          order  5    : 1              (200000 /sec)
          order  6    : 1              (52632 /sec)
          order  7    : 1              (8547 /sec)
          order  8    : 2              (1351 /sec)
          order  9    : 6              (315 /sec)
          order 10    : 22             (143 /sec)
          order 11    : 57             (116 /sec)
          order 12    : 258            (93 /sec)
          order 13    : 753            (67 /sec)
          order 14    : 8945           (46 /sec)
          order 15    : 37632          (32 /sec)
          order 16    : 145868         (22 /sec)
          order 17    : 92845          (17 /sec)
          order 18    : 16240          (14 /sec)
          order 19    : 5536           (13 /sec)
          order 20    : 1555           (16 /sec)
          order 21    : 1657           (16 /sec)
          order 22    : 28             (1 /sec)
Noncanonical subgraphs: 1136763        (160 /sec)
          order  3    : 0              (-nan /sec)
          order  4    : 0              (-nan /sec)
          order  5    : 0              (-nan /sec)
          order  6    : 0              (-nan /sec)
          order  7    : 0              (-nan /sec)
          order  8    : 0              (-nan /sec)
          order  9    : 0              (-nan /sec)
          order 10    : 0              (-nan /sec)
          order 11    : 0              (-nan /sec)
          order 12    : 0              (-nan /sec)
          order 13    : 1795           (17651 /sec)
          order 14    : 26690          (2267 /sec)
          order 15    : 57352          (1062 /sec)
          order 16    : 883072         (170 /sec)
          order 17    : 151979         (105 /sec)
          order 18    : 13938          (51 /sec)
          order 19    : 13             (199 /sec)
          order 20    : 3              (80 /sec)
          order 21    : 3              (44 /sec)
Canonicity checking   : 15390.2 s
Noncanonicity checking: 7117.36 s
Total canonicity time : 22507.6 s
database reductions   : 277
restarts              : 32767
conflicts             : 23584352       (571 /sec)
decisions             : 29224240       (0.00 % random) (708 /sec)
propagations          : 2393957368     (57989 /sec)
conflict literals     : 2445127938     (57.46 % deleted)
actual reward         : 0.117150
Memory used           : 689.00 MB
CPU time              : 41283 s

UNSATISFIABLE
